c FILE: i160-004

c SOURCE: From steinlib

c DESCRIPTION: Steinlib instance with 160 nodes and 240 edges.

p edge 160 240
e 1 28
e 1 56
e 1 60
e 1 73
e 1 80
e 1 143
e 2 15
e 2 23
e 3 7
e 3 145
e 4 22
e 4 36
e 4 40
e 4 69
e 4 84
e 5 61
e 6 26
e 6 108
e 6 145
e 6 149
e 7 52
e 8 11
e 8 60
e 8 115
e 8 136
e 9 76
e 9 101
e 10 19
e 11 144
e 12 27
e 12 149
e 13 70
e 13 134
e 13 140
e 13 149
e 14 32
e 14 154
e 15 59
e 15 121
e 15 130
e 15 132
e 16 74
e 16 87
e 16 99
e 17 33
e 17 93
e 17 116
e 17 121
e 18 83
e 18 118
e 18 135
e 18 141
e 18 157
e 18 158
e 19 26
e 19 76
e 19 124
e 19 144
e 19 153
e 20 24
e 20 51
e 20 114
e 21 79
e 21 154
e 22 47
e 22 111
e 23 116
e 23 151
e 24 137
e 25 74
e 25 95
e 25 127
e 25 132
e 26 91
e 26 138
e 27 101
e 28 96
e 28 102
e 28 113
e 28 138
e 29 51
e 29 93
e 29 133
e 30 49
e 30 129
e 31 42
e 31 83
e 31 87
e 31 88
e 31 99
e 33 154
e 33 156
e 34 47
e 34 113
e 35 76
e 35 150
e 36 43
e 37 116
e 37 154
e 38 46
e 38 99
e 38 117
e 39 40
e 39 146
e 40 64
e 40 77
e 41 152
e 42 105
e 42 126
e 43 51
e 43 117
e 43 127
e 44 112
e 44 115
e 44 137
e 45 73
e 45 106
e 46 158
e 47 49
e 47 53
e 47 75
e 47 131
e 47 150
e 48 54
e 48 135
e 48 140
e 50 143
e 51 58
e 52 63
e 52 87
e 52 115
e 52 155
e 54 123
e 55 81
e 55 112
e 55 157
e 56 63
e 56 68
e 57 80
e 58 100
e 58 159
e 59 135
e 59 140
e 60 70
e 60 107
e 60 132
e 60 149
e 61 113
e 62 67
e 63 64
e 63 102
e 63 152
e 65 86
e 65 88
e 65 93
e 66 74
e 67 96
e 67 113
e 69 102
e 69 139
e 70 89
e 71 103
e 72 112
e 72 137
e 73 105
e 73 115
e 74 132
e 74 159
e 75 153
e 75 154
e 76 85
e 76 148
e 78 143
e 79 136
e 80 108
e 80 110
e 81 153
e 82 150
e 83 88
e 83 142
e 83 146
e 83 153
e 84 145
e 85 139
e 86 87
e 88 90
e 88 113
e 88 126
e 89 123
e 89 157
e 90 105
e 90 150
e 91 98
e 92 102
e 92 110
e 92 120
e 92 153
e 93 129
e 93 155
e 94 106
e 94 156
e 96 122
e 96 135
e 97 136
e 97 140
e 98 131
e 99 113
e 100 104
e 100 146
e 102 130
e 102 137
e 102 147
e 103 156
e 104 116
e 105 159
e 107 134
e 108 131
e 109 129
e 109 142
e 109 153
e 111 128
e 111 148
e 113 156
e 115 129
e 115 148
e 116 151
e 116 159
e 117 140
e 118 159
e 119 128
e 119 134
e 119 138
e 121 138
e 123 149
e 124 160
e 125 140
e 131 146
e 135 152
e 135 153
e 145 150
